Code 2234
Dimension, Median 
   128       16     
 Facility, Client, Transportation Cost
     1        1           3
     1        2           2
     1        3           2
     1        5           4
     1        9           2
     1       17           4
     1       33           0
     1       65           2
     2        1           4
     2        2           4
     2        4           3
     2        6           3
     2       10           3
     2       18           0
     2       34           1
     2       66           4
     3        1           1
     3        3           0
     3        4           0
     3        7           1
     3       11           1
     3       19           3
     3       35           4
     3       67           2
     4        2           2
     4        3           1
     4        4           2
     4        8           3
     4       12           3
     4       20           4
     4       36           1
     4       68           1
     5        1           2
     5        5           4
     5        6           3
     5        7           0
     5       13           4
     5       21           2
     5       37           4
     5       69           0
     6        2           2
     6        5           1
     6        6           1
     6        8           0
     6       14           2
     6       22           2
     6       38           1
     6       70           1
     7        3           1
     7        5           2
     7        7           0
     7        8           0
     7       15           2
     7       23           0
     7       39           3
     7       71           3
     8        4           4
     8        6           3
     8        7           0
     8        8           4
     8       16           4
     8       24           4
     8       40           3
     8       72           0
     9        1           1
     9        9           3
     9       10           4
     9       11           3
     9       13           0
     9       25           3
     9       41           0
     9       73           2
    10        2           1
    10        9           2
    10       10           0
    10       12           0
    10       14           1
    10       26           3
    10       42           4
    10       74           2
    11        3           3
    11        9           0
    11       11           3
    11       12           1
    11       15           2
    11       27           4
    11       43           2
    11       75           0
    12        4           0
    12       10           0
    12       11           4
    12       12           4
    12       16           3
    12       28           1
    12       44           4
    12       76           2
    13        5           0
    13        9           0
    13       13           4
    13       14           2
    13       15           1
    13       29           3
    13       45           1
    13       77           0
    14        6           0
    14       10           2
    14       13           3
    14       14           4
    14       16           3
    14       30           3
    14       46           3
    14       78           0
    15        7           1
    15       11           0
    15       13           1
    15       15           0
    15       16           1
    15       31           1
    15       47           1
    15       79           4
    16        8           4
    16       12           3
    16       14           0
    16       15           3
    16       16           3
    16       32           1
    16       48           1
    16       80           4
    17        1           4
    17       17           2
    17       18           0
    17       19           1
    17       21           2
    17       25           4
    17       49           4
    17       81           2
    18        2           1
    18       17           0
    18       18           2
    18       20           1
    18       22           1
    18       26           1
    18       50           1
    18       82           3
    19        3           3
    19       17           3
    19       19           1
    19       20           1
    19       23           2
    19       27           3
    19       51           0
    19       83           3
    20        4           0
    20       18           2
    20       19           2
    20       20           1
    20       24           2
    20       28           1
    20       52           3
    20       84           1
    21        5           0
    21       17           1
    21       21           2
    21       22           0
    21       23           2
    21       29           4
    21       53           3
    21       85           1
    22        6           2
    22       18           3
    22       21           2
    22       22           4
    22       24           1
    22       30           4
    22       54           4
    22       86           1
    23        7           2
    23       19           3
    23       21           1
    23       23           2
    23       24           4
    23       31           4
    23       55           3
    23       87           4
    24        8           1
    24       20           3
    24       22           3
    24       23           1
    24       24           2
    24       32           3
    24       56           4
    24       88           3
    25        9           0
    25       17           4
    25       25           3
    25       26           1
    25       27           3
    25       29           1
    25       57           1
    25       89           1
    26       10           3
    26       18           0
    26       25           1
    26       26           1
    26       28           0
    26       30           0
    26       58           4
    26       90           0
    27       11           4
    27       19           1
    27       25           3
    27       27           0
    27       28           1
    27       31           4
    27       59           4
    27       91           4
    28       12           0
    28       20           1
    28       26           2
    28       27           1
    28       28           3
    28       32           3
    28       60           0
    28       92           4
    29       13           4
    29       21           3
    29       25           2
    29       29           4
    29       30           3
    29       31           2
    29       61           4
    29       93           3
    30       14           1
    30       22           2
    30       26           3
    30       29           1
    30       30           0
    30       32           1
    30       62           4
    30       94           4
    31       15           2
    31       23           4
    31       27           2
    31       29           0
    31       31           1
    31       32           0
    31       63           0
    31       95           3
    32       16           3
    32       24           2
    32       28           4
    32       30           4
    32       31           3
    32       32           0
    32       64           1
    32       96           3
    33        1           0
    33       33           4
    33       34           0
    33       35           3
    33       37           1
    33       41           4
    33       49           3
    33       97           1
    34        2           4
    34       33           0
    34       34           2
    34       36           4
    34       38           2
    34       42           4
    34       50           4
    34       98           1
    35        3           4
    35       33           3
    35       35           0
    35       36           3
    35       39           1
    35       43           4
    35       51           3
    35       99           1
    36        4           2
    36       34           0
    36       35           4
    36       36           3
    36       40           3
    36       44           2
    36       52           4
    36      100           0
    37        5           4
    37       33           1
    37       37           2
    37       38           3
    37       39           2
    37       45           4
    37       53           2
    37      101           2
    38        6           2
    38       34           4
    38       37           0
    38       38           2
    38       40           2
    38       46           4
    38       54           2
    38      102           3
    39        7           0
    39       35           2
    39       37           3
    39       39           0
    39       40           4
    39       47           0
    39       55           2
    39      103           2
    40        8           3
    40       36           2
    40       38           0
    40       39           3
    40       40           0
    40       48           3
    40       56           3
    40      104           3
    41        9           2
    41       33           0
    41       41           3
    41       42           2
    41       43           4
    41       45           4
    41       57           1
    41      105           3
    42       10           4
    42       34           0
    42       41           1
    42       42           4
    42       44           3
    42       46           0
    42       58           0
    42      106           4
    43       11           2
    43       35           4
    43       41           4
    43       43           1
    43       44           3
    43       47           3
    43       59           4
    43      107           4
    44       12           0
    44       36           3
    44       42           1
    44       43           1
    44       44           3
    44       48           2
    44       60           0
    44      108           1
    45       13           4
    45       37           3
    45       41           4
    45       45           4
    45       46           1
    45       47           3
    45       61           4
    45      109           1
    46       14           4
    46       38           3
    46       42           1
    46       45           0
    46       46           2
    46       48           0
    46       62           4
    46      110           1
    47       15           1
    47       39           4
    47       43           3
    47       45           4
    47       47           4
    47       48           1
    47       63           2
    47      111           1
    48       16           1
    48       40           0
    48       44           0
    48       46           2
    48       47           0
    48       48           4
    48       64           0
    48      112           2
    49       17           0
    49       33           4
    49       49           2
    49       50           0
    49       51           1
    49       53           4
    49       57           1
    49      113           0
    50       18           1
    50       34           0
    50       49           0
    50       50           2
    50       52           3
    50       54           1
    50       58           0
    50      114           0
    51       19           4
    51       35           4
    51       49           1
    51       51           0
    51       52           1
    51       55           1
    51       59           4
    51      115           3
    52       20           3
    52       36           3
    52       50           0
    52       51           1
    52       52           3
    52       56           4
    52       60           4
    52      116           2
    53       21           2
    53       37           4
    53       49           4
    53       53           4
    53       54           2
    53       55           1
    53       61           0
    53      117           4
    54       22           1
    54       38           2
    54       50           2
    54       53           2
    54       54           4
    54       56           4
    54       62           3
    54      118           0
    55       23           1
    55       39           4
    55       51           4
    55       53           2
    55       55           4
    55       56           2
    55       63           2
    55      119           2
    56       24           2
    56       40           3
    56       52           2
    56       54           4
    56       55           0
    56       56           3
    56       64           0
    56      120           2
    57       25           0
    57       41           2
    57       49           1
    57       57           1
    57       58           3
    57       59           3
    57       61           1
    57      121           3
    58       26           1
    58       42           4
    58       50           2
    58       57           0
    58       58           1
    58       60           1
    58       62           1
    58      122           3
    59       27           2
    59       43           2
    59       51           2
    59       57           1
    59       59           0
    59       60           0
    59       63           3
    59      123           2
    60       28           0
    60       44           1
    60       52           0
    60       58           2
    60       59           4
    60       60           3
    60       64           2
    60      124           1
    61       29           1
    61       45           4
    61       53           2
    61       57           2
    61       61           1
    61       62           2
    61       63           0
    61      125           1
    62       30           3
    62       46           2
    62       54           4
    62       58           1
    62       61           4
    62       62           4
    62       64           3
    62      126           4
    63       31           2
    63       47           3
    63       55           2
    63       59           2
    63       61           1
    63       63           3
    63       64           3
    63      127           2
    64       32           0
    64       48           4
    64       56           3
    64       60           1
    64       62           2
    64       63           4
    64       64           3
    64      128           2
    65        1           2
    65       65           3
    65       66           3
    65       67           3
    65       69           3
    65       73           2
    65       81           4
    65       97           1
    66        2           3
    66       65           4
    66       66           4
    66       68           3
    66       70           2
    66       74           1
    66       82           0
    66       98           2
    67        3           4
    67       65           4
    67       67           2
    67       68           1
    67       71           2
    67       75           2
    67       83           0
    67       99           3
    68        4           2
    68       66           2
    68       67           2
    68       68           1
    68       72           1
    68       76           0
    68       84           4
    68      100           3
    69        5           3
    69       65           3
    69       69           4
    69       70           4
    69       71           1
    69       77           4
    69       85           1
    69      101           4
    70        6           3
    70       66           4
    70       69           1
    70       70           1
    70       72           3
    70       78           2
    70       86           4
    70      102           3
    71        7           1
    71       67           2
    71       69           2
    71       71           2
    71       72           4
    71       79           4
    71       87           4
    71      103           0
    72        8           1
    72       68           3
    72       70           4
    72       71           2
    72       72           1
    72       80           4
    72       88           1
    72      104           3
    73        9           1
    73       65           1
    73       73           4
    73       74           3
    73       75           3
    73       77           1
    73       89           0
    73      105           2
    74       10           1
    74       66           0
    74       73           3
    74       74           2
    74       76           4
    74       78           3
    74       90           0
    74      106           3
    75       11           0
    75       67           3
    75       73           2
    75       75           4
    75       76           3
    75       79           4
    75       91           4
    75      107           1
    76       12           4
    76       68           1
    76       74           3
    76       75           4
    76       76           1
    76       80           2
    76       92           4
    76      108           4
    77       13           0
    77       69           0
    77       73           0
    77       77           4
    77       78           0
    77       79           3
    77       93           1
    77      109           4
    78       14           3
    78       70           2
    78       74           0
    78       77           0
    78       78           1
    78       80           4
    78       94           2
    78      110           4
    79       15           3
    79       71           0
    79       75           4
    79       77           4
    79       79           4
    79       80           4
    79       95           4
    79      111           3
    80       16           2
    80       72           4
    80       76           3
    80       78           4
    80       79           0
    80       80           1
    80       96           2
    80      112           2
    81       17           0
    81       65           3
    81       81           4
    81       82           2
    81       83           3
    81       85           4
    81       89           4
    81      113           4
    82       18           3
    82       66           3
    82       81           0
    82       82           2
    82       84           0
    82       86           3
    82       90           4
    82      114           3
    83       19           1
    83       67           3
    83       81           1
    83       83           3
    83       84           2
    83       87           3
    83       91           4
    83      115           4
    84       20           0
    84       68           3
    84       82           4
    84       83           2
    84       84           2
    84       88           3
    84       92           3
    84      116           2
    85       21           4
    85       69           3
    85       81           4
    85       85           2
    85       86           4
    85       87           2
    85       93           0
    85      117           1
    86       22           4
    86       70           3
    86       82           4
    86       85           4
    86       86           3
    86       88           1
    86       94           4
    86      118           0
    87       23           4
    87       71           0
    87       83           3
    87       85           1
    87       87           2
    87       88           1
    87       95           1
    87      119           2
    88       24           1
    88       72           0
    88       84           0
    88       86           3
    88       87           4
    88       88           2
    88       96           4
    88      120           1
    89       25           0
    89       73           4
    89       81           1
    89       89           4
    89       90           4
    89       91           4
    89       93           1
    89      121           1
    90       26           1
    90       74           0
    90       82           0
    90       89           1
    90       90           3
    90       92           1
    90       94           0
    90      122           2
    91       27           2
    91       75           2
    91       83           3
    91       89           1
    91       91           4
    91       92           4
    91       95           2
    91      123           2
    92       28           2
    92       76           1
    92       84           2
    92       90           1
    92       91           4
    92       92           1
    92       96           4
    92      124           0
    93       29           4
    93       77           3
    93       85           1
    93       89           1
    93       93           4
    93       94           1
    93       95           1
    93      125           0
    94       30           4
    94       78           4
    94       86           1
    94       90           1
    94       93           4
    94       94           0
    94       96           0
    94      126           4
    95       31           4
    95       79           3
    95       87           1
    95       91           3
    95       93           2
    95       95           0
    95       96           4
    95      127           4
    96       32           3
    96       80           4
    96       88           0
    96       92           1
    96       94           1
    96       95           4
    96       96           0
    96      128           1
    97       33           1
    97       65           4
    97       97           0
    97       98           2
    97       99           3
    97      101           2
    97      105           2
    97      113           0
    98       34           2
    98       66           4
    98       97           1
    98       98           1
    98      100           2
    98      102           4
    98      106           3
    98      114           2
    99       35           3
    99       67           3
    99       97           2
    99       99           4
    99      100           0
    99      103           2
    99      107           0
    99      115           4
   100       36           3
   100       68           4
   100       98           1
   100       99           1
   100      100           1
   100      104           2
   100      108           4
   100      116           4
   101       37           4
   101       69           1
   101       97           4
   101      101           0
   101      102           3
   101      103           1
   101      109           0
   101      117           2
   102       38           2
   102       70           1
   102       98           2
   102      101           3
   102      102           0
   102      104           4
   102      110           0
   102      118           3
   103       39           3
   103       71           1
   103       99           3
   103      101           3
   103      103           3
   103      104           2
   103      111           4
   103      119           4
   104       40           4
   104       72           0
   104      100           0
   104      102           4
   104      103           3
   104      104           3
   104      112           4
   104      120           1
   105       41           3
   105       73           1
   105       97           0
   105      105           3
   105      106           4
   105      107           4
   105      109           4
   105      121           1
   106       42           3
   106       74           1
   106       98           1
   106      105           4
   106      106           2
   106      108           1
   106      110           2
   106      122           1
   107       43           4
   107       75           3
   107       99           2
   107      105           1
   107      107           3
   107      108           4
   107      111           4
   107      123           1
   108       44           2
   108       76           2
   108      100           0
   108      106           2
   108      107           2
   108      108           3
   108      112           4
   108      124           3
   109       45           1
   109       77           4
   109      101           0
   109      105           2
   109      109           4
   109      110           3
   109      111           0
   109      125           1
   110       46           0
   110       78           2
   110      102           4
   110      106           3
   110      109           2
   110      110           4
   110      112           0
   110      126           1
   111       47           4
   111       79           2
   111      103           2
   111      107           0
   111      109           0
   111      111           4
   111      112           2
   111      127           3
   112       48           2
   112       80           4
   112      104           3
   112      108           2
   112      110           2
   112      111           0
   112      112           0
   112      128           0
   113       49           4
   113       81           3
   113       97           3
   113      113           3
   113      114           0
   113      115           3
   113      117           1
   113      121           0
   114       50           4
   114       82           2
   114       98           4
   114      113           2
   114      114           4
   114      116           1
   114      118           2
   114      122           0
   115       51           4
   115       83           0
   115       99           0
   115      113           1
   115      115           1
   115      116           4
   115      119           3
   115      123           3
   116       52           0
   116       84           1
   116      100           2
   116      114           4
   116      115           3
   116      116           3
   116      120           4
   116      124           2
   117       53           0
   117       85           2
   117      101           0
   117      113           3
   117      117           4
   117      118           2
   117      119           0
   117      125           4
   118       54           2
   118       86           0
   118      102           0
   118      114           0
   118      117           4
   118      118           0
   118      120           2
   118      126           3
   119       55           2
   119       87           4
   119      103           1
   119      115           0
   119      117           4
   119      119           0
   119      120           4
   119      127           1
   120       56           3
   120       88           2
   120      104           4
   120      116           0
   120      118           3
   120      119           1
   120      120           1
   120      128           3
   121       57           0
   121       89           0
   121      105           1
   121      113           1
   121      121           2
   121      122           3
   121      123           3
   121      125           4
   122       58           3
   122       90           2
   122      106           2
   122      114           1
   122      121           2
   122      122           4
   122      124           2
   122      126           3
   123       59           0
   123       91           3
   123      107           4
   123      115           1
   123      121           3
   123      123           0
   123      124           3
   123      127           2
   124       60           2
   124       92           4
   124      108           3
   124      116           0
   124      122           2
   124      123           1
   124      124           2
   124      128           3
   125       61           4
   125       93           0
   125      109           4
   125      117           3
   125      121           3
   125      125           2
   125      126           2
   125      127           1
   126       62           0
   126       94           3
   126      110           2
   126      118           3
   126      122           0
   126      125           0
   126      126           0
   126      128           2
   127       63           1
   127       95           4
   127      111           1
   127      119           4
   127      123           0
   127      125           1
   127      127           2
   127      128           2
   128       64           4
   128       96           4
   128      112           3
   128      120           4
   128      124           1
   128      126           0
   128      127           0
   128      128           3
